190 308
0 1 
0 2 3 
3 4 
0 2 3 
1 2 3 4 
0 1 6 
2 4 6 7 8 
8 2 4 7 
1 3 4 5 6 8 10 
0 4 6 7 9 10 11 
2 10 4 6 
0 10 6 7 
0 3 4 13 14 
1 10 12 13 15 
2 4 5 6 8 10 11 14 15 
0 1 2 3 4 10 11 
0 1 4 5 9 10 11 12 13 14 
2 3 4 7 10 16 18 
7 10 12 14 15 17 18 
0 2 4 5 8 9 10 13 14 15 16 
0 1 2 5 6 7 8 9 10 11 12 14 15 19 
0 3 4 5 8 9 11 14 17 19 20 21 22 23 
0 2 3 4 6 14 15 16 18 19 20 21 22 23 
1 2 3 6 8 12 13 14 16 18 21 24 
3 8 9 11 12 15 16 17 22 25 26 
3 7 8 9 10 15 16 17 18 27 
0 1 4 5 6 8 9 10 12 13 19 22 23 25 26 27 
0 1 3 6 7 10 13 15 23 25 29 
1 2 3 5 7 8 9 11 12 13 14 16 17 19 21 23 25 29 
8 10 11 12 14 15 16 18 22 23 24 25 27 
0 1 32 3 4 6 13 14 18 19 21 23 24 26 27 28 29 
33 2 6 8 9 11 14 17 20 21 22 24 26 28 29 
32 2 6 7 8 10 11 13 17 19 21 22 23 29 30 
0 2 3 4 5 7 8 9 11 12 13 17 20 21 23 25 28 29 31 33 35 
0 1 34 10 17 19 20 21 27 28 31 
1 33 34 4 5 36 7 8 37 14 18 20 29 31 
0 1 2 3 4 6 7 11 12 13 14 15 17 22 26 28 30 31 32 35 37 38 
5 6 7 8 9 11 12 19 20 21 22 24 25 27 30 32 36 37 38 39 
0 4 8 11 12 13 15 16 18 20 21 25 26 29 30 31 33 34 35 39 40 
1 2 33 34 35 6 37 38 9 10 15 25 26 30 31 
1 2 3 5 6 9 14 16 19 20 23 24 25 28 30 32 33 34 37 38 39 40 41 42 
1 2 4 5 6 7 8 9 10 12 15 16 20 21 24 27 28 29 32 33 39 41 42 
1 2 4 8 13 16 18 19 20 21 22 24 26 27 28 29 30 31 32 34 35 37 38 40 41 43 
1 2 3 4 5 6 7 8 9 10 12 16 18 19 20 21 22 23 25 28 30 33 34 36 37 38 39 40 43 44 
0 4 9 11 12 13 15 16 17 18 19 21 23 24 27 30 34 37 40 41 43 45 
4 5 13 15 16 17 18 19 20 25 26 28 30 31 32 33 37 38 39 40 42 43 
0 1 2 3 4 5 7 9 10 11 12 13 16 17 18 19 20 21 22 23 24 29 31 37 39 40 43 45 46 
1 2 5 8 10 11 12 13 14 17 18 19 20 22 23 24 26 27 28 30 34 36 39 40 42 43 47 48 
8 9 10 11 12 13 14 16 18 19 21 22 24 26 27 29 31 32 33 34 35 38 41 43 44 46 47 48 49 50 
0 2 3 7 11 12 15 17 19 21 22 24 28 29 30 32 33 35 36 37 41 45 48 50 
0 2 3 7 9 12 13 14 15 16 17 21 26 28 29 30 33 36 37 40 42 43 44 45 48 49 52 
3 35 36 6 37 38 39 10 44 47 49 21 53 24 25 26 27 30 
3 5 6 7 8 9 11 13 15 17 19 20 21 26 27 28 30 32 34 37 38 39 43 44 45 46 47 48 50 51 53 
0 1 3 4 6 7 9 10 12 13 14 19 21 22 23 24 25 26 31 33 35 36 37 38 41 42 43 44 46 48 49 52 53 
2 4 6 9 13 15 16 17 22 24 25 27 28 29 30 31 35 36 37 39 40 41 42 43 44 45 46 48 50 52 55 
2 3 4 12 13 14 15 17 19 23 25 27 30 31 34 35 36 37 38 39 40 42 43 44 47 48 49 50 51 54 57 
0 2 4 5 9 10 11 14 15 16 18 19 20 21 23 24 25 26 29 31 32 34 35 36 40 41 43 44 45 47 49 53 55 
0 1 2 3 7 8 11 13 14 15 16 17 18 19 20 21 22 24 25 26 27 29 30 36 39 40 44 46 48 52 56 59 
1 3 4 7 10 11 12 14 16 17 19 22 27 28 31 32 35 37 38 39 44 45 47 50 51 52 53 54 57 
0 5 9 12 13 14 16 18 20 26 30 40 43 44 46 47 48 51 55 58 60 
0 2 5 6 7 8 10 12 13 15 20 21 25 26 28 29 32 33 34 37 39 42 47 50 54 55 56 59 62 
0 1 4 8 9 11 13 14 16 17 19 20 22 24 25 26 27 29 31 33 35 40 41 44 45 46 47 51 52 53 55 56 57 59 
0 3 4 5 6 7 8 9 12 13 15 19 22 23 24 25 27 28 30 32 34 36 38 39 40 43 44 45 46 48 49 52 53 54 55 61 62 63 
9 10 11 12 14 16 17 18 21 22 23 25 29 31 34 35 38 39 42 43 45 49 53 55 60 61 62 
1 2 3 5 6 11 12 13 17 18 19 21 22 23 24 25 26 27 32 33 35 38 39 44 45 46 47 48 49 53 55 56 57 60 63 64 
0 1 2 4 6 7 10 13 17 18 20 21 22 23 25 26 32 33 36 42 46 55 56 57 58 61 65 
2 6 7 8 9 11 13 14 16 17 19 20 24 25 26 32 39 41 42 43 47 49 50 55 56 57 58 60 63 64 65 68 
0 2 3 4 5 6 8 10 12 13 14 16 21 22 23 24 31 33 34 36 42 43 44 46 47 50 51 59 61 65 66 
0 1 3 4 5 6 8 9 11 12 13 15 16 22 24 28 33 35 40 41 44 46 48 50 54 58 60 63 66 
1 3 4 6 11 14 15 16 17 18 19 20 21 25 27 28 30 32 36 38 39 40 42 44 46 47 48 49 51 52 55 57 58 59 61 64 
3 4 6 8 9 11 14 18 20 21 22 23 25 28 29 32 34 35 37 39 41 42 43 45 48 51 53 56 57 58 59 61 63 64 66 67 70 72 
1 3 7 9 10 14 16 23 27 28 31 33 35 36 37 39 42 43 46 47 48 49 50 52 55 56 58 64 65 66 67 
2 3 6 8 12 15 16 18 20 23 24 25 26 27 30 37 39 42 46 47 48 49 50 53 54 55 56 57 58 60 61 62 64 67 68 69 71 72 74 
0 1 4 5 8 12 17 19 20 21 22 23 27 28 29 30 32 33 34 35 38 41 42 44 45 47 52 56 60 61 64 65 66 67 70 
0 1 2 4 5 6 7 8 10 11 12 14 19 21 22 23 27 28 31 32 33 34 35 36 38 40 42 43 50 51 54 57 59 60 61 63 66 67 68 71 74 75 76 
1 2 4 10 11 12 19 23 24 26 27 31 32 33 34 35 36 37 42 43 44 45 47 49 53 54 55 60 63 67 68 70 72 73 75 77 
6 9 10 11 12 13 14 15 17 22 23 26 30 35 39 40 41 43 44 45 46 52 55 56 58 59 64 66 69 71 72 75 76 78 
4 7 8 13 15 16 19 20 21 24 25 27 29 34 39 44 47 49 51 52 58 59 60 64 65 68 71 72 73 76 79 
0 1 2 6 7 9 10 13 14 15 16 17 19 22 23 26 28 30 31 35 36 37 42 43 47 50 53 55 56 57 58 60 62 64 67 71 73 75 78 
0 1 2 4 5 7 19 20 25 26 27 29 32 34 35 36 38 39 40 41 42 44 45 49 50 52 57 58 61 65 69 71 72 78 79 80 81 
3 4 5 6 9 11 13 16 18 19 23 25 26 27 30 31 37 38 42 43 50 51 52 53 54 59 61 62 63 65 68 70 71 73 76 77 79 82 
1 2 5 6 7 8 9 12 16 17 18 20 23 24 28 30 32 33 34 36 38 41 49 50 51 54 57 58 61 62 63 64 66 67 69 70 73 74 75 78 79 
0 1 4 5 7 9 12 17 18 20 21 23 26 29 31 32 34 37 38 40 41 46 48 49 50 51 52 53 54 55 57 58 59 70 76 77 78 79 81 83 
0 1 11 15 16 17 18 19 24 26 27 28 31 34 35 36 38 41 43 44 46 49 50 51 54 57 58 59 60 61 63 68 69 71 72 75 80 81 85 
2 3 4 5 6 8 13 14 18 19 20 23 26 29 30 33 34 35 39 40 44 49 53 55 58 59 61 64 65 66 67 70 71 72 74 80 81 
0 2 3 5 6 11 12 13 14 16 19 20 22 25 32 33 38 39 40 42 43 45 49 50 53 55 62 64 65 66 67 68 69 71 73 74 78 80 83 84 85 86 
0 1 3 4 5 6 7 11 14 20 21 22 25 26 27 29 32 33 36 37 39 40 41 42 45 46 47 48 49 50 51 54 55 58 59 60 63 64 65 66 67 68 69 70 72 75 76 77 78 79 82 84 
0 1 2 5 6 7 8 14 15 20 24 26 27 30 31 34 37 40 42 43 47 48 50 51 52 54 55 57 62 65 66 67 69 70 72 77 78 82 83 84 87 
1 3 5 7 9 10 11 17 18 20 23 24 27 28 30 32 33 34 36 40 42 43 44 45 46 47 48 50 52 53 54 56 57 60 62 64 66 69 70 73 77 80 83 85 87 89 90 
0 1 3 7 8 10 15 22 23 26 27 31 37 38 40 46 47 49 52 54 57 63 65 67 68 69 76 78 79 80 82 86 87 88 89 90 
1 5 9 12 14 17 18 20 21 22 26 32 35 41 45 47 48 49 50 53 56 57 58 59 63 66 67 69 70 71 72 73 74 75 76 78 82 85 87 88 91 
0 1 2 3 5 7 8 9 11 12 15 17 19 22 24 25 26 29 30 33 36 37 39 49 50 52 53 56 57 58 62 64 65 70 71 74 83 87 91 92 
1 3 7 8 12 15 16 17 20 23 24 25 27 28 32 33 36 39 41 43 45 46 48 54 55 56 57 61 62 63 64 68 74 76 78 79 82 84 86 87 90 93 
2 7 8 10 11 13 15 18 20 21 24 26 27 34 37 39 40 44 46 49 51 53 55 58 59 60 61 62 63 66 67 68 69 73 74 75 80 81 83 84 86 91 93 95 
3 5 6 8 9 11 13 18 21 23 24 28 30 33 34 36 39 40 45 46 51 52 55 58 59 61 62 64 65 66 67 68 69 74 75 76 78 80 82 83 84 85 92 93 94 
0 3 4 7 17 18 19 20 23 24 26 28 29 31 33 34 37 39 44 45 46 47 49 51 56 57 60 62 66 69 70 76 78 80 82 85 86 88 91 94 95 
0 2 5 8 9 12 13 14 18 20 21 24 26 28 29 32 35 37 39 40 42 43 45 46 50 51 52 54 56 57 60 61 62 68 69 70 71 73 76 77 78 79 80 82 83 84 86 88 92 93 
0 1 4 5 7 8 9 12 14 15 16 17 18 22 27 28 30 36 40 41 43 46 48 49 54 55 60 63 64 65 66 71 80 85 86 88 89 91 92 93 97 
5 6 7 8 9 12 16 23 27 28 30 31 33 37 38 41 44 47 50 51 52 53 56 57 58 61 64 65 66 68 71 72 73 76 78 83 84 87 89 92 93 94 95 97 100 
0 1 2 5 6 8 9 10 11 12 14 17 18 19 20 21 24 25 27 28 31 33 34 35 36 38 41 43 44 45 46 49 51 54 55 57 58 59 60 61 62 72 73 74 76 78 79 80 83 84 86 87 88 91 93 95 98 101 
1 3 6 8 12 15 16 20 23 24 29 30 33 34 35 40 42 46 48 50 52 54 56 61 62 64 67 68 69 71 74 76 79 83 89 90 91 93 95 96 98 
3 5 10 13 14 17 18 20 21 22 29 30 31 32 33 34 38 39 41 42 44 45 48 49 53 54 55 58 61 64 65 67 72 75 77 78 79 82 85 86 90 91 92 93 95 96 99 100 103 
0 1 3 5 9 14 16 18 20 26 28 29 33 35 38 41 42 43 49 52 53 54 56 62 63 64 65 69 71 73 79 80 81 83 84 86 89 90 91 92 93 95 97 99 100 101 103 
1 2 3 4 6 7 9 10 13 14 16 17 19 21 24 25 27 29 30 31 34 36 37 39 40 41 42 43 44 45 47 48 52 53 55 58 60 62 63 64 66 67 75 76 83 84 88 91 94 95 97 98 99 101 103 104 
2 5 6 11 15 16 18 19 21 22 24 25 27 30 31 32 33 34 35 38 40 48 50 51 52 54 55 61 64 69 70 72 73 76 79 80 81 83 85 87 88 90 99 100 103 104 105 106 
2 4 5 6 8 10 11 13 15 16 17 18 20 21 23 24 25 27 28 32 36 38 41 42 43 45 49 50 51 55 57 58 59 60 62 64 65 66 68 70 72 74 76 79 80 81 82 83 84 85 87 92 94 97 98 99 100 103 107 
0 8 10 11 12 15 16 18 19 20 24 25 26 28 29 30 33 34 36 41 42 43 49 50 52 54 57 59 61 63 64 65 67 70 71 74 77 78 79 82 83 85 87 91 95 97 99 100 101 104 105 
1 8 10 11 12 15 18 22 24 25 26 29 30 31 34 36 41 44 47 48 55 58 60 61 65 66 67 70 73 74 80 81 83 85 86 88 89 90 91 93 94 95 97 99 103 105 106 
2 5 11 13 14 19 23 24 28 29 31 32 33 34 35 36 38 39 40 46 49 51 65 66 67 69 75 76 78 81 82 84 86 88 89 91 92 93 94 98 100 101 104 106 110 
0 1 4 9 13 14 19 22 23 25 26 27 29 34 35 36 40 42 47 49 50 54 57 60 62 64 66 72 75 76 77 78 79 80 82 84 87 89 91 93 94 96 98 99 106 109 110 
0 4 6 7 9 10 12 17 18 21 23 24 25 27 28 30 31 32 33 34 35 37 40 42 49 50 53 55 56 57 58 60 61 62 69 71 72 73 75 76 78 80 88 90 94 95 96 100 101 102 103 104 105 108 109 
1 4 7 10 12 15 16 18 20 22 23 25 27 28 30 33 36 42 43 46 47 48 49 50 53 54 56 58 60 62 64 66 67 68 70 72 73 75 76 77 79 83 86 90 91 93 94 97 102 104 105 106 107 108 109 110 111 
0 10 13 14 15 21 22 24 30 32 36 37 38 39 41 44 45 49 50 52 55 57 58 59 60 61 62 65 66 67 68 69 77 78 81 82 83 85 86 88 90 91 96 98 99 100 101 105 107 109 113 
5 6 7 10 13 15 17 19 20 22 28 29 30 31 32 33 37 42 45 46 49 51 53 56 59 60 62 68 70 71 72 73 74 75 80 81 82 83 84 85 89 91 94 95 98 99 104 106 107 108 110 112 
1 2 3 5 7 9 11 12 14 18 19 20 23 29 31 34 35 39 40 41 42 43 45 46 48 52 54 56 58 61 63 64 65 68 69 70 71 72 74 75 78 79 80 81 83 84 86 88 92 94 95 98 100 102 104 106 107 108 109 110 113 115 116 
2 3 5 6 12 15 17 23 25 26 28 31 33 36 38 39 41 43 45 49 50 54 55 56 57 59 60 62 63 65 66 68 71 72 73 75 76 79 81 84 85 88 94 97 98 101 104 105 106 111 112 113 114 115 
3 5 6 7 8 9 15 16 17 18 22 25 26 29 31 33 35 37 38 40 41 44 45 51 52 56 57 59 63 64 65 71 72 73 74 75 77 79 80 81 85 90 91 97 100 101 102 104 106 107 111 114 118 
0 1 3 5 6 7 9 10 11 13 14 16 22 23 27 30 33 35 37 38 43 44 45 48 51 52 53 61 62 63 64 66 67 69 70 72 76 78 79 83 85 87 88 90 92 94 99 100 101 102 104 110 113 115 117 
0 2 5 7 11 15 17 23 33 35 36 42 46 47 49 51 52 53 55 56 58 60 61 62 63 67 68 69 71 73 74 75 77 78 80 83 84 85 86 87 88 95 96 101 103 111 113 116 119 
2 3 9 14 15 16 18 19 23 24 26 29 30 32 36 39 42 44 46 47 50 52 53 56 59 66 67 70 75 77 81 91 93 95 96 97 99 100 102 104 105 108 110 111 120 
3 4 5 7 9 10 11 12 15 17 18 19 20 24 28 29 36 37 38 39 41 42 46 47 49 51 54 55 56 57 59 62 63 64 67 68 69 71 76 77 78 79 80 81 85 86 88 89 92 96 97 99 100 106 108 109 114 116 119 122 
8 10 11 12 13 17 19 21 25 27 30 31 32 33 34 35 37 38 40 47 51 52 55 58 60 62 64 67 68 73 74 78 90 91 92 93 94 95 96 97 99 100 101 102 104 105 106 107 108 109 110 113 115 123 
4 5 7 10 11 15 16 17 22 25 28 29 31 33 36 37 38 40 41 46 47 48 49 51 52 54 63 70 71 74 78 79 80 82 84 88 89 92 93 94 95 97 98 99 100 107 109 110 113 114 116 118 119 120 122 
5 6 8 9 13 14 15 17 19 20 22 23 27 28 30 33 38 41 45 51 52 53 54 56 58 62 69 71 72 73 74 79 82 90 91 95 98 99 103 104 105 106 109 110 112 114 115 118 119 120 125 
7 10 12 13 21 24 28 29 31 32 33 35 37 41 42 45 46 47 48 52 53 54 58 59 60 68 70 71 73 75 77 78 79 83 84 90 93 97 99 102 103 105 107 110 114 116 117 120 122 125 
7 8 9 10 11 12 15 16 17 18 21 22 25 27 28 29 30 32 35 37 41 43 45 51 55 56 59 62 63 66 67 68 69 70 75 77 78 80 81 84 86 89 93 94 96 98 100 101 103 105 109 111 112 113 117 122 123 124 125 
128 9 10 11 13 15 18 21 22 26 28 31 35 37 38 41 42 44 46 47 51 53 55 57 60 62 63 64 65 67 68 69 71 72 80 81 82 86 97 98 100 103 104 105 106 107 109 111 112 115 116 117 119 
129 13 18 21 22 24 26 31 32 34 36 38 39 40 43 46 48 49 51 53 54 57 58 59 63 64 65 66 68 69 70 71 72 73 78 81 82 83 85 86 88 90 91 92 93 94 98 101 103 104 105 108 109 112 113 114 117 121 124 125 
128 130 14 15 16 24 26 28 31 32 35 38 39 48 50 51 52 53 55 56 57 60 61 64 65 66 71 72 73 74 78 79 82 84 86 87 88 90 93 94 95 97 98 99 105 106 108 111 114 115 116 118 119 121 124 
128 11 14 16 17 18 21 22 23 29 30 32 35 37 41 45 47 48 49 50 53 54 55 56 61 65 66 71 72 73 74 75 76 78 80 83 84 85 88 89 90 92 98 101 102 103 106 107 109 110 112 118 119 120 124 126 127 
128 129 130 132 13 14 15 16 17 20 22 24 25 27 29 31 34 40 41 42 44 45 47 51 53 54 56 59 62 63 64 66 67 70 71 72 74 76 77 78 79 80 84 87 92 93 94 95 96 99 101 106 108 110 111 112 114 116 118 119 121 125 126 127 
128 129 130 14 18 20 21 23 25 27 28 33 35 38 40 41 42 45 47 49 50 51 52 55 56 57 58 59 60 63 64 65 66 67 68 69 73 74 76 78 84 89 91 92 96 99 100 102 106 107 109 110 111 113 119 122 123 125 126 
129 130 16 17 18 19 22 23 25 26 36 38 39 43 44 45 48 49 50 51 53 59 60 61 66 67 72 73 75 77 79 88 91 92 99 103 104 112 115 117 121 
129 134 135 18 19 22 27 28 29 30 34 36 37 38 41 44 46 47 48 49 51 61 63 64 65 68 71 72 74 83 85 86 87 88 89 96 98 101 102 104 106 108 110 111 112 113 120 121 123 125 126 
130 132 136 16 20 21 23 25 26 27 28 29 30 31 32 36 38 40 42 43 44 45 47 50 52 56 59 63 64 65 66 67 69 71 72 73 75 76 77 78 79 82 83 85 86 89 90 91 92 101 102 107 114 118 119 120 124 126 
128 129 132 135 137 17 21 24 26 28 29 34 37 38 40 46 47 48 54 58 60 61 62 63 67 68 69 70 71 73 75 76 77 82 83 84 85 87 88 89 90 91 93 94 97 100 106 108 109 110 111 112 116 117 118 119 120 123 124 126 
128 129 130 131 137 138 19 20 25 29 31 34 35 36 37 39 40 42 44 45 47 48 49 52 55 56 57 58 59 61 64 65 68 78 79 83 86 89 91 92 93 94 96 99 100 101 102 103 104 105 109 110 112 114 115 117 119 120 122 123 124 
130 131 133 134 135 136 137 138 139 19 24 28 29 31 32 35 37 39 40 41 42 44 47 48 51 58 61 65 67 68 69 71 72 73 74 77 78 79 81 82 83 84 85 86 87 88 89 90 94 100 103 104 107 115 116 117 120 122 124 125 127 
131 132 133 135 138 139 20 21 22 24 25 26 30 31 32 34 35 37 38 40 41 43 49 50 51 53 54 56 63 64 66 73 74 75 76 77 78 85 86 87 92 94 95 96 97 101 102 104 105 106 108 113 116 118 123 
128 130 132 134 135 136 138 139 141 25 26 31 32 33 34 36 42 43 44 49 51 55 56 59 60 62 63 65 66 67 71 73 74 77 80 84 85 86 89 91 95 96 99 101 102 103 105 106 107 108 109 110 114 116 117 122 123 124 125 126 
130 131 132 134 135 137 140 22 23 30 31 32 36 38 39 41 45 46 49 50 51 54 56 57 59 60 62 65 66 67 70 72 74 77 81 82 84 88 89 90 91 92 93 94 95 96 98 100 102 105 107 108 109 113 115 116 119 121 124 126 127 
128 133 135 136 137 139 140 142 143 25 26 27 28 29 31 33 34 40 41 47 48 52 57 59 61 62 63 67 71 72 73 74 75 76 77 78 79 84 85 89 96 97 100 101 102 103 104 106 110 116 118 121 122 
130 132 134 135 137 140 143 144 24 27 32 33 35 36 38 40 41 42 43 44 45 46 47 54 59 60 62 65 66 71 72 74 76 77 79 80 81 84 85 87 88 90 91 93 96 98 102 103 105 108 109 112 113 114 115 117 118 120 121 123 126 127 
128 130 131 134 136 142 26 27 31 37 39 45 48 49 53 57 58 59 62 64 65 67 69 70 72 73 75 76 78 79 81 82 86 88 89 90 91 92 94 96 98 99 103 107 109 113 114 115 118 124 127 
129 132 134 135 136 137 138 139 140 144 145 146 30 34 35 36 39 44 46 49 50 51 53 54 55 58 59 61 65 67 68 69 70 71 79 80 82 83 87 88 91 92 93 95 96 97 99 108 109 112 114 117 118 119 121 122 123 126 
128 131 134 136 140 141 143 144 145 146 147 27 28 29 30 32 34 35 41 44 45 46 48 53 54 55 58 59 60 61 66 70 72 76 77 80 81 85 88 89 90 91 92 93 94 95 97 99 105 113 115 117 119 122 125 
129 130 131 132 134 136 137 144 145 146 148 29 30 32 33 35 37 39 41 44 45 46 52 53 54 56 60 62 63 66 67 68 69 70 72 73 76 79 81 85 86 87 89 90 99 100 103 104 105 107 108 110 112 113 114 115 117 118 121 122 123 126 127 
128 129 135 137 138 139 140 141 143 147 29 32 35 36 39 40 42 43 45 46 47 48 51 52 53 56 61 62 63 64 69 70 75 80 81 83 84 85 86 87 90 91 92 95 96 98 101 102 104 105 106 110 111 112 113 116 118 120 122 124 125 
128 137 144 146 148 150 31 34 36 41 45 46 47 50 52 53 55 56 59 60 61 63 68 75 76 80 82 84 85 90 93 96 97 98 99 100 101 102 104 105 106 107 108 115 116 117 120 121 124 125 
128 131 133 135 136 139 140 143 149 31 32 38 41 45 48 51 52 54 55 56 57 58 61 69 71 74 75 77 79 86 87 89 91 93 95 97 98 100 101 102 103 106 107 109 110 118 120 122 123 124 125 126 127 
130 131 132 135 137 144 146 147 148 149 151 32 34 35 38 43 45 49 50 53 54 55 56 57 58 60 61 62 63 65 66 67 68 69 70 71 77 82 83 84 85 86 89 92 94 96 97 101 102 103 105 107 111 112 114 115 116 117 118 122 123 126 
130 132 134 136 137 140 143 145 147 149 150 151 152 153 33 35 36 37 40 41 43 44 45 46 51 52 53 55 56 58 59 61 62 64 65 68 69 74 75 77 79 80 81 83 85 87 91 92 93 95 96 97 98 99 101 104 105 107 109 110 113 115 119 120 121 124 125 
128 130 132 133 136 137 138 141 142 149 152 34 37 41 44 47 48 51 52 54 61 68 70 74 75 76 79 80 81 85 86 87 90 92 93 94 95 98 99 100 101 104 106 108 109 110 111 115 119 120 122 123 124 
128 129 133 134 135 136 138 142 144 145 146 152 36 38 39 41 43 46 48 50 51 52 54 55 58 59 62 66 67 68 72 74 76 77 81 82 83 88 90 91 92 93 96 98 100 103 109 110 111 112 113 115 120 124 125 127 
128 130 131 133 135 137 138 139 140 141 143 144 148 149 151 154 155 36 38 39 40 42 44 45 50 51 53 54 55 56 57 58 59 60 61 66 68 72 73 75 76 78 82 83 88 89 90 94 95 96 98 99 102 103 104 105 108 109 110 111 120 126 127 
131 132 133 135 136 138 140 145 146 147 148 149 153 156 37 39 42 43 45 47 49 55 56 63 64 65 67 68 70 74 76 79 80 85 86 87 88 89 91 92 93 94 97 100 102 103 105 106 108 110 111 117 119 120 123 127 
129 130 131 132 134 138 140 142 143 144 145 147 148 149 155 157 38 42 43 48 50 51 59 60 62 68 69 70 71 73 75 80 82 84 85 97 98 106 111 112 114 116 118 123 124 127 
129 133 134 137 138 140 141 143 146 148 149 150 156 158 159 39 40 43 44 46 47 50 53 60 61 65 66 67 68 69 70 71 72 74 76 77 78 81 87 90 91 93 94 95 96 97 100 105 111 112 114 116 119 120 121 122 124 
128 129 131 132 133 134 138 139 145 153 154 155 156 157 158 160 40 42 44 48 50 52 53 58 59 62 63 66 72 73 74 76 77 81 84 86 88 89 91 94 95 97 99 102 104 108 109 110 111 112 113 115 117 118 119 121 125 126 127 
128 129 131 132 133 136 137 138 139 140 143 144 145 146 152 153 155 156 157 158 159 160 161 42 43 44 46 48 50 52 54 57 59 60 62 68 69 70 71 74 76 77 78 80 81 82 84 85 86 95 97 100 101 103 104 107 111 114 117 119 120 121 126 
129 130 133 135 138 150 151 154 156 157 160 44 46 48 51 52 54 56 57 58 59 62 63 64 66 69 70 71 72 73 78 81 82 83 84 89 93 94 95 96 98 99 101 104 105 106 110 112 113 116 117 118 120 121 122 124 127 
129 131 139 141 142 145 146 148 152 154 158 161 43 46 48 53 54 57 58 59 61 63 64 71 76 77 79 83 84 85 87 89 91 93 94 98 100 101 103 104 106 108 109 110 112 115 116 119 122 123 124 126 127 
130 131 133 134 135 137 138 141 142 143 153 154 155 156 157 160 163 44 45 47 50 51 52 54 56 57 60 61 63 66 69 70 72 79 80 81 83 84 87 88 90 91 93 97 98 99 100 102 103 108 111 113 114 115 117 119 125 126 127 
128 129 130 131 133 136 137 138 139 141 144 145 148 150 151 153 154 159 161 162 163 46 47 48 52 54 57 61 62 63 65 68 71 75 76 79 80 81 82 84 92 94 95 96 97 98 102 110 111 112 113 114 117 120 122 125 127 
129 133 134 137 141 142 147 150 153 156 158 166 47 48 55 57 62 63 64 68 70 72 78 81 82 83 84 86 89 90 94 96 99 101 102 104 106 111 114 118 120 122 125 126 127 
128 131 132 141 142 146 148 149 151 152 153 154 156 157 158 160 162 163 165 167 47 50 53 54 58 61 69 75 76 80 81 82 84 85 89 90 95 96 101 102 103 104 109 110 111 112 114 115 117 118 121 123 124 125 126 127 
129 130 133 136 139 142 144 146 148 149 154 155 156 157 160 162 163 164 165 166 167 48 51 53 56 57 61 63 65 67 69 70 73 74 79 81 85 86 87 88 89 93 96 97 98 99 102 103 107 111 113 114 115 116 117 118 120 122 123 125 127 
128 130 131 133 134 135 137 138 142 143 145 146 149 152 153 156 157 158 159 160 166 49 50 51 52 53 54 55 56 59 60 74 77 78 82 84 85 86 87 89 90 91 92 93 94 95 96 97 99 100 101 102 103 105 107 108 110 111 113 117 118 123 126 
128 129 130 134 139 140 141 143 144 148 150 154 155 156 157 162 166 169 170 50 52 54 57 60 61 65 67 73 74 75 76 78 81 82 83 86 87 88 89 90 92 97 98 99 101 102 105 106 107 109 110 113 115 117 120 121 123 125 126 127 
128 129 133 134 135 136 137 140 142 145 146 147 149 152 153 154 155 157 159 161 162 163 165 167 170 52 54 55 56 58 60 61 63 68 69 70 73 74 75 77 84 85 87 88 91 92 94 97 100 101 102 104 106 111 112 114 117 118 119 123 124 125 126 127 
128 130 131 133 137 140 141 142 143 144 145 148 152 153 158 160 161 163 168 171 53 58 59 60 61 64 65 67 68 69 70 71 74 75 77 78 80 81 85 87 93 97 98 99 102 105 106 109 110 111 117 118 121 122 123 
128 129 132 134 135 137 139 141 145 146 147 149 151 152 153 155 161 163 166 167 168 170 171 172 173 53 55 56 57 58 59 62 65 66 69 70 71 72 74 75 77 79 80 81 82 84 86 93 97 98 102 104 106 109 111 113 114 116 117 119 121 124 126 
130 132 133 134 137 140 141 142 144 146 147 148 149 150 151 152 153 154 155 157 158 163 164 165 171 174 56 57 60 63 67 69 70 72 74 75 76 79 80 82 83 85 87 89 90 92 95 97 98 101 107 108 109 110 111 112 114 116 120 121 124 125 126 
129 130 133 134 138 141 142 145 146 148 151 152 154 156 157 158 160 165 168 169 173 174 175 57 60 63 64 65 71 72 74 77 78 79 80 81 82 83 86 87 90 91 93 94 97 98 101 102 105 106 107 109 111 115 117 120 121 122 124 125 127 
129 131 134 136 140 141 142 143 145 147 153 154 155 157 158 161 164 166 167 170 171 172 173 56 57 58 59 60 62 63 65 68 71 73 74 76 77 83 84 85 88 89 90 94 96 99 100 101 102 105 106 108 110 113 116 118 120 122 123 124 125 126 
131 133 134 135 136 140 144 146 148 150 152 153 154 155 157 158 161 162 163 166 168 171 172 174 176 57 59 60 63 64 65 67 70 71 78 79 85 87 90 93 94 95 100 102 103 104 105 106 107 109 113 115 119 123 125 126 127 
128 133 134 136 137 140 142 143 152 154 155 156 158 162 163 165 166 171 173 174 175 177 178 58 59 62 63 64 66 70 72 75 81 82 86 89 94 96 99 100 103 105 117 120 
128 130 132 136 137 140 141 144 145 146 147 148 149 152 155 156 157 160 169 173 177 178 179 59 60 63 65 68 70 72 73 75 77 79 80 81 84 85 87 89 90 92 93 94 95 96 98 100 101 104 105 107 108 109 111 112 113 114 116 119 121 123 
128 130 134 135 138 139 140 143 147 149 151 154 156 157 158 163 165 166 168 169 171 177 61 62 64 66 68 70 71 73 75 76 77 81 83 85 86 88 89 91 92 94 97 99 102 103 105 112 113 114 115 116 117 121 122 123 124 125 127 
128 129 134 135 136 138 139 140 151 153 155 156 157 158 159 166 167 173 174 175 180 66 67 73 77 82 85 86 87 89 90 91 92 94 96 97 99 104 105 108 110 111 114 115 116 118 121 122 123 125 127 
129 130 131 132 133 135 145 148 152 154 155 159 160 165 167 169 176 178 179 182 62 64 65 66 68 73 74 75 76 80 81 82 83 84 85 86 88 89 90 91 94 95 97 99 100 103 105 111 113 120 122 124 
128 132 134 136 143 145 147 150 151 153 157 158 161 162 163 164 166 168 172 174 175 176 178 181 63 65 66 68 72 73 75 77 86 87 90 91 94 95 98 101 102 103 104 105 107 108 112 114 118 121 122 125 126 
129 130 131 132 133 136 137 139 141 144 145 146 150 152 155 159 162 164 168 169 170 172 173 177 178 179 181 184 64 67 69 70 74 76 78 82 83 87 88 89 96 98 100 101 103 105 111 113 114 115 117 118 120 121 123 127 
129 130 135 137 138 139 143 145 146 147 148 149 151 152 154 155 157 161 166 177 178 180 182 183 184 65 66 67 68 69 71 72 73 75 77 80 81 82 83 87 90 94 95 96 99 102 108 109 110 111 115 119 120 121 125 127 
129 132 137 141 143 144 147 148 151 153 155 159 160 164 167 169 171 172 174 179 180 185 186 67 69 72 74 76 77 81 82 83 84 86 87 88 89 91 93 94 95 96 100 101 106 107 108 109 111 113 116 117 120 121 123 125 126 
131 132 133 136 139 140 141 143 147 150 151 153 154 157 159 160 166 167 172 173 174 175 180 181 182 186 67 68 69 70 71 74 75 76 77 80 81 83 84 91 98 100 102 103 104 108 109 110 112 113 115 116 117 119 121 125 127 
130 131 133 138 139 145 146 150 152 153 156 158 159 161 162 164 166 167 168 169 170 171 177 179 180 182 183 184 186 187 188 69 70 73 74 75 77 78 79 81 82 84 86 87 88 90 92 93 95 96 97 100 103 104 105 106 107 109 110 111 112 115 118 121 123 124 
130 135 136 137 139 140 147 150 151 152 153 155 157 161 166 167 168 170 171 173 174 175 176 177 178 187 189 69 70 72 73 75 77 78 80 81 82 87 88 89 90 92 96 97 99 100 101 103 104 109 112 116 117 118 119 120 121 123 
128 131 133 136 137 138 140 141 142 143 144 146 147 148 155 156 157 160 162 164 165 168 171 176 177 178 179 181 182 183 189 73 75 76 77 79 80 81 82 83 86 87 88 89 90 92 95 98 103 104 107 109 112 113 114 115 124 125 126 127 
128 133 134 135 138 139 142 147 148 157 160 162 168 169 170 171 172 178 183 186 187 188 189 72 73 74 77 78 79 80 84 85 92 95 98 99 100 101 102 103 104 107 108 109 110 112 113 114 116 118 119 120 121 125 
128 132 133 134 143 144 152 153 156 159 160 167 168 169 170 171 176 177 178 179 181 184 186 188 189 73 74 77 80 82 84 86 88 89 90 92 93 94 95 96 97 102 105 106 107 108 110 111 112 117 118 119 121 123 
132 135 137 139 140 141 142 147 149 150 155 161 162 163 165 167 168 172 175 176 178 182 184 187 189 73 75 82 85 86 88 92 95 98 101 103 108 111 115 116 117 118 121 122 126 127 
134 140 142 143 147 155 156 158 159 163 165 166 167 171 174 180 182 184 187 75 80 87 88 89 96 98 99 101 102 105 106 107 108 109 116 119 120 123 124 126 127 
129 131 133 134 135 139 141 143 144 145 147 148 150 151 153 155 157 164 165 169 171 172 174 177 178 180 182 184 186 187 189 77 79 80 81 85 86 87 88 89 92 94 95 96 97 99 101 104 105 107 109 110 112 113 120 123 126 127 
128 130 134 136 137 138 139 140 141 142 144 145 149 150 153 156 157 159 160 163 164 165 168 170 172 174 175 176 178 180 183 186 187 76 77 78 79 81 82 83 88 90 96 98 102 104 108 110 114 115 117 118 119 122 124 125 126 
128 131 136 137 140 141 143 147 150 151 154 157 158 162 163 164 165 168 169 172 179 180 184 185 188 79 82 84 86 88 89 90 91 92 93 97 98 100 101 104 106 107 108 110 113 114 116 117 118 120 122 123 124 125 
129 131 133 134 135 143 145 148 149 152 156 158 160 161 163 164 169 171 173 176 177 183 184 185 187 78 81 83 84 87 90 91 93 94 95 100 105 106 109 111 112 115 117 118 119 122 127 
131 132 133 134 136 140 143 144 151 153 161 162 164 166 172 173 175 176 177 179 181 182 188 79 80 81 83 86 92 93 97 98 100 104 107 108 109 110 112 113 114 115 116 117 118 119 121 122 125 127 
128 132 137 138 139 143 144 147 148 155 156 157 158 161 162 167 168 169 172 175 176 178 180 181 182 186 187 189 82 87 88 93 94 97 99 102 110 112 116 117 119 126 
130 132 134 136 137 139 143 147 152 154 157 159 162 163 165 167 168 172 173 174 179 180 181 185 186 188 85 87 88 97 100 108 112 114 115 116 117 119 120 121 124 125 
129 130 131 132 133 135 138 139 142 143 149 152 159 161 162 164 165 166 167 169 175 177 180 181 182 183 188 82 83 86 87 93 96 101 102 106 107 108 109 113 114 116 117 121 122 
128 129 131 132 139 141 145 146 149 150 155 156 158 161 162 163 166 168 169 171 172 173 174 175 176 177 179 180 181 185 186 187 188 189 83 84 87 88 89 92 96 97 99 102 103 105 107 108 110 111 112 113 114 118 119 120 124 125 126 127 
129 132 133 136 138 141 142 144 148 152 153 154 155 156 159 161 163 168 169 170 171 175 176 179 182 183 184 185 188 85 86 88 89 90 92 93 94 96 101 106 107 108 111 112 113 118 119 121 122 125 
128 132 134 137 139 140 141 142 146 148 150 151 156 157 158 160 161 162 163 166 167 169 172 173 174 175 180 181 182 183 186 189 89 90 92 95 97 101 102 103 104 112 113 114 115 118 120 121 123 126 127 
128 129 130 132 135 139 143 144 145 147 149 150 153 154 156 158 159 161 162 163 165 166 168 170 171 172 176 181 182 185 187 189 87 91 92 93 98 101 102 103 107 108 113 115 119 123 124 125 
131 134 137 138 140 143 147 149 151 153 155 157 161 164 165 166 167 169 171 175 178 179 180 181 184 188 189 87 90 95 96 103 105 106 107 110 113 115 120 121 123 124 
128 129 131 132 133 134 135 139 140 141 145 146 150 151 152 153 156 157 158 159 160 161 162 164 166 168 169 170 172 173 175 176 177 180 181 182 186 188 88 92 93 95 96 104 107 109 112 114 115 118 119 121 123 124 125 
129 135 137 138 141 142 143 147 148 149 151 152 160 161 163 164 165 166 168 171 172 173 175 176 177 178 179 180 183 186 187 188 189 89 91 92 94 95 97 99 104 106 109 113 118 120 122 125 126 
129 131 133 134 135 136 138 139 140 141 142 144 148 150 152 155 159 161 162 163 165 166 167 169 170 172 176 178 185 186 91 92 93 96 97 106 108 111 114 115 116 117 121 122 123 125 126 
130 131 132 134 136 137 139 145 146 147 148 149 152 153 155 156 158 159 160 161 166 169 170 173 175 176 183 186 188 189 91 96 98 99 100 102 103 107 108 112 114 115 116 119 120 121 123 125 127 
129 130 132 135 136 140 141 143 145 146 150 152 153 154 157 158 159 160 162 164 166 169 170 171 172 174 176 178 181 182 92 96 98 99 102 103 104 106 107 108 110 111 112 114 117 118 122 125 
128 129 131 132 133 136 138 139 141 144 146 148 149 150 155 156 158 159 165 168 169 170 173 175 184 185 186 188 94 98 100 101 103 104 105 106 107 110 111 112 114 115 116 119 120 121 122 124 
130 131 134 135 136 138 139 141 142 143 144 147 148 149 151 153 155 156 157 159 160 161 163 165 166 167 169 171 172 174 175 178 180 183 185 186 189 95 97 99 101 102 103 107 108 109 110 112 114 116 118 121 122 123 124 126 
128 129 132 136 138 140 144 145 146 151 152 162 163 165 170 174 179 180 182 187 188 95 96 98 102 103 107 109 112 113 116 117 120 121 123 126 127 
128 130 131 132 133 138 140 141 142 146 147 148 149 153 154 155 156 158 159 162 164 166 167 168 171 172 176 177 178 180 181 183 184 185 186 96 100 103 105 107 109 110 111 112 113 114 117 118 119 122 124 125 126 127 
129 130 131 133 134 141 142 144 145 146 147 148 153 154 159 162 164 165 167 169 170 172 174 176 177 178 179 183 186 189 98 99 100 101 105 106 111 113 114 116 119 122 123 125 127 
128 130 132 133 136 138 139 141 143 144 145 160 161 162 164 166 168 169 172 173 174 179 180 181 182 184 185 186 187 98 99 100 101 108 112 115 116 121 122 124 125 127 
129 130 133 134 135 138 139 141 144 146 150 151 155 156 160 161 169 170 171 173 174 176 177 180 182 185 189 100 103 110 113 115 116 122 124 126 
128 129 130 131 132 135 136 137 138 139 143 145 146 147 148 149 150 157 158 160 164 166 168 169 176 177 183 185 189 102 103 105 106 108 111 112 113 114 115 116 118 119 120 122 124 125 
130 131 133 134 140 142 147 152 155 165 167 169 170 171 173 174 178 179 181 182 183 184 187 189 102 104 105 106 107 108 111 112 114 115 116 119 120 121 122 126 127 
129 131 132 133 134 135 138 139 140 142 143 146 147 149 150 153 154 156 158 159 160 162 163 165 167 168 170 173 174 177 180 183 186 188 104 105 107 108 114 115 116 117 118 119 121 123 124 127 
128 130 132 133 135 138 139 140 141 142 145 147 148 149 151 159 163 164 168 169 170 171 172 175 176 177 179 180 181 182 184 185 186 187 188 189 104 106 107 108 109 114 117 118 120 123 124 126 127 
129 131 134 135 136 137 140 144 145 148 154 156 162 163 165 166 169 173 174 176 179 180 181 183 184 187 189 105 106 108 109 111 112 113 115 116 117 118 122 123 124 125 
128 129 131 133 135 138 140 142 144 146 148 151 152 153 154 155 157 158 159 162 164 166 167 171 172 176 177 178 179 181 182 183 188 107 110 114 117 118 120 122 126 
130 134 139 141 142 144 145 147 149 150 152 153 155 157 160 162 164 165 166 168 169 172 175 176 177 181 182 183 184 187 188 106 109 113 118 119 122 125 126 
128 129 131 136 139 141 142 144 145 147 148 149 150 151 152 154 159 160 161 164 167 168 169 171 174 177 179 180 184 185 188 107 111 119 120 121 122 125 127 
128 130 134 135 137 138 140 142 145 149 150 151 154 162 163 164 165 168 170 171 173 176 177 178 179 180 184 185 188 108 109 111 112 113 114 116 117 118 120 121 122 
128 131 137 140 142 144 145 149 151 154 155 157 161 162 164 165 166 167 168 169 170 174 175 180 182 183 184 187 189 113 114 115 116 118 119 121 122 123 124 127 
131 132 133 135 139 141 142 143 144 147 148 149 150 151 155 156 159 161 162 165 167 168 170 171 174 175 177 179 186 187 188 110 111 115 118 119 121 123 
130 136 137 143 144 145 149 150 151 152 156 158 159 162 163 164 167 169 174 175 176 178 179 180 181 182 183 184 187 189 111 112 117 119 120 123 124 126 127 
129 130 132 136 138 139 140 141 142 143 145 146 147 149 152 153 155 156 157 158 162 163 164 166 167 168 170 173 175 177 180 182 184 187 189 116 118 121 122 123 126 127 
131 137 142 143 144 146 147 148 149 150 152 155 157 158 164 165 166 170 171 172 174 175 179 182 185 186 187 188 115 117 120 126 
132 133 136 137 140 146 147 154 155 159 160 161 165 166 167 169 171 172 180 182 184 185 186 115 116 119 120 122 123 126 
131 132 133 134 135 136 138 142 143 144 145 149 152 155 156 158 159 162 163 167 169 171 172 174 177 178 179 183 184 186 189 116 120 123 124 127 
128 129 131 132 134 135 136 137 139 140 142 145 148 150 151 152 153 154 156 163 164 165 167 169 170 174 175 177 179 181 182 183 184 185 116 117 119 124 126 127 
129 137 140 142 145 146 148 149 151 155 156 159 160 161 165 169 171 173 174 175 176 178 180 182 183 186 187 189 122 124 125 126 127 
130 136 138 141 143 144 146 147 151 152 154 157 160 161 163 165 166 172 175 178 179 180 187 188 189 119 121 126 127 
128 129 130 131 132 133 135 137 139 140 143 144 148 151 152 154 157 158 159 163 164 166 167 169 176 177 178 182 184 185 187 123 124 125 126 
131 132 133 134 137 139 140 141 142 145 147 148 149 150 152 155 157 159 160 161 162 168 172 173 174 178 179 180 181 182 183 187 123 124 127 
128 134 137 138 141 143 146 148 150 152 153 159 160 161 163 167 168 170 171 172 173 183 184 185 188 121 122 123 124 
130 132 133 134 137 140 141 142 146 147 151 152 156 157 160 162 168 170 174 175 179 182 183 184 188 189 
128 130 132 133 136 137 143 144 147 150 151 152 153 154 156 157 159 162 163 164 166 169 170 171 172 173 174 176 177 178 179 180 182 188 127 
128 129 131 135 136 138 139 142 143 147 150 151 152 153 155 156 158 160 164 169 176 177 179 180 184 185 186 187 188 124 
128 133 135 136 138 139 140 141 144 146 149 152 158 159 160 161 163 164 166 167 169 172 177 178 180 187 188 125 126 
129 130 131 134 135 136 139 141 143 145 146 147 149 150 151 153 154 156 159 161 167 170 171 173 175 176 178 179 181 185 126 127 
129 134 135 141 143 144 145 146 147 148 149 150 151 152 153 154 155 158 159 160 161 162 164 165 168 170 171 172 174 175 176 177 178 179 180 181 182 183 184 187 188 127 
129 130 133 138 142 143 145 146 148 149 150 153 154 156 158 159 161 163 164 165 172 177 178 179 180 182 
132 135 136 138 140 142 144 146 149 150 151 152 153 154 155 156 157 158 160 161 163 164 171 173 175 176 177 180 181 182 183 184 185 188 
132 133 136 138 142 143 144 146 150 152 153 157 159 161 162 163 164 165 166 168 170 171 172 175 180 181 183 184 185 189 
131 137 140 141 144 145 146 148 149 150 151 159 160 163 166 168 170 171 172 173 174 177 178 181 183 187 189 
132 133 135 136 137 138 142 143 144 145 146 148 150 153 154 160 163 164 165 167 170 174 175 180 181 184 185 187 189 
135 136 138 139 141 148 154 156 157 158 159 160 161 162 164 165 167 170 171 173 176 181 182 186 187 188 
134 135 136 138 139 141 142 144 145 146 148 150 154 155 156 158 161 164 168 172 174 175 176 179 181 183 185 186 188 189 
135 137 139 141 145 146 148 149 151 152 158 160 166 170 173 175 180 185 186 188 189 
143 146 147 150 151 153 154 155 158 159 160 161 163 164 166 169 177 178 186 
138 139 140 143 147 148 150 151 153 154 156 160 163 164 168 170 171 176 179 180 184 185 186 189 
138 141 142 144 145 146 147 148 149 150 154 157 158 159 164 166 167 168 173 175 176 177 179 181 185 186 188 189 
139 141 142 144 147 149 150 152 153 156 158 159 160 163 167 168 169 170 171 172 175 178 179 181 184 186 189 
140 142 151 153 154 156 157 159 160 161 165 167 171 172 173 177 178 182 187 188 189 
163 164 165 168 169 172 173 142 175 145 180 149 182 152 185 186 187 157 
142 144 145 146 150 151 153 154 159 170 172 173 174 176 177 178 179 180 182 183 185 187 
143 147 148 151 152 153 154 155 161 162 164 165 166 167 171 174 175 177 178 184 185 186 187 189 
144 148 150 151 152 153 154 157 158 160 164 165 166 167 168 169 174 178 181 182 183 185 186 187 
147 150 151 152 154 155 158 159 160 162 166 172 173 174 175 177 178 179 184 186 189 
146 147 149 150 151 154 156 157 160 162 164 166 169 173 174 175 177 178 179 181 184 185 186 188 
149 151 154 155 157 158 160 163 165 169 170 175 176 178 179 182 183 188 189 
149 150 151 156 157 160 161 162 165 168 170 172 176 179 180 183 184 185 186 189 
149 151 153 154 157 160 162 163 164 165 166 167 172 173 175 177 178 181 182 183 185 
150 151 154 155 156 157 161 163 164 166 169 171 174 175 178 179 182 184 185 187 
154 155 157 158 159 160 163 164 165 166 167 168 169 170 173 174 175 177 178 180 181 183 185 188 
162 163 165 166 167 169 173 174 187 179 181 183 185 155 189 158 159 
161 164 165 167 168 170 173 175 176 177 179 180 183 184 153 188 189 158 
162 165 167 170 173 174 175 187 177 181 182 184 186 155 156 189 159 
161 162 165 167 170 171 172 173 174 176 178 180 181 184 187 188 158 159 
161 162 163 165 168 171 175 176 177 188 181 183 156 158 
160 161 162 163 164 166 167 170 174 176 179 183 185 186 158 159 
161 162 165 173 178 181 183 184 
160 161 167 170 171 172 173 177 178 182 183 184 189 
161 167 168 170 174 175 176 178 180 181 182 183 184 187 
162 163 164 169 170 171 172 173 180 185 186 188 
162 168 169 171 172 173 174 176 179 183 184 185 187 
163 164 165 171 172 173 176 177 179 180 181 182 183 184 185 187 
168 170 173 175 177 178 179 181 183 187 188 
165 166 167 168 173 175 176 180 181 185 186 187 188 
167 168 170 174 175 176 178 180 182 186 187 188 
167 168 169 170 176 182 183 184 185 186 187 189 
168 169 170 171 173 179 184 185 186 189 
170 171 172 177 186 188 189 
172 174 175 176 178 181 182 188 189 
171 172 173 174 176 177 181 182 184 185 188 
173 174 175 176 177 179 181 182 183 184 185 186 
173 179 181 182 183 184 186 187 
174 178 185 186 187 188 189 
178 188 181 189 
176 177 183 185 189 
179 180 181 182 188 
179 180 181 183 185 186 187 189 
182 184 186 187 188 189 
181 183 184 185 186 188 189 
185 187 181 
187 183 
183 185 186 187 188 189 
184 
185 188 
186 
187 189 
188 
189